problem_generation/data/GISP/train/er_n=66_m=1304_p=0.60_SET2_setparam=100.00_alpha=0.50_641.lp
maximize
OBJ:100x0 + 100x1 + 100x2 + 100x3 + 100x4 + 100x5 + 100x6 + 100x7 + 100x8 + 100x9 + 100x10 + 100x11 + 100x12 + 100x13 + 100x14 + 100x15 + 100x16 + 100x17 + 100x18 + 100x19 + 100x20 + 100x21 + 100x22 + 100x23 + 100x24 + 100x25 + 100x26 + 100x27 + 100x28 + 100x29 + 100x30 + 100x31 + 100x32 + 100x33 + 100x34 + 100x35 + 100x36 + 100x37 + 100x38 + 100x39 + 100x40 + 100x41 + 100x42 + 100x43 + 100x44 + 100x45 + 100x46 + 100x47 + 100x48 + 100x49 + 100x50 + 100x51 + 100x52 + 100x53 + 100x54 + 100x55 + 100x56 + 100x57 + 100x58 + 100x59 + 100x60 + 100x61 + 100x62 + 100x63 + 100x64 + 100x65 - y15_21 - y55_57 - y36_53 - y15_30 - y18_26 - y15_39 - y17_58 - y26_39 - y8_18 - y6_48 - y21_46 - y0_23 - y6_57 - y40_59 - y21_55 - y10_27 - y33_38 - y25_34 - y25_43 - y10_54 - y33_56 - y10_63 - y51_64 - y2_59 - y3_24 - y32_60 - y3_33 - y3_42 - y15_25 - y55_61 - y18_21 - y36_57 - y17_53 - y18_30 - y5_60 - y9_58 - y0_9 - y29_45 - y29_54 - y21_50 - y29_63 - y10_31 - y10_40 - y10_49 - y2_45 - y43_55 - y22_32 - y14_37 - y36_43 - y47_52 - y55_65 - y5_55 - y17_57 - y6_29 - y29_31 - y9_62 - y21_27 - y48_53 - y3_5 - y51_54 - y35_46 - y32_59 - y16_51 - y24_64 - y36_38 - y17_34 - y36_47 - y9_30 - y5_50 - y36_65 - y21_22 - y6_33 - y40_44 - y39_48 - y39_57 - y25_28 - y31_62 - y13_32 - y51_58 - y14_18 - y16_37 - y32_54 - y24_50 - y35_50 - y43_54 - y43_63 - y28_38 - y5_45 - y9_43 - y6_37 - y42_58 - y6_46 - y39_43 - y2_12 - y20_48 - y31_48 - y39_61 - y20_57 - y23_53 - y4_49 - y12_62 - y23_62 - y51_53 - y32_49 - y1_43 - y24_45 - y35_45 - y43_58 - y16_50 - y1_61 - y24_63 - y9_11 - y9_20 - y17_33 - y17_42 - y28_42 - y6_14 - y50_57 - y42_53 - y21_30 - y31_34 - y0_65 - y2_7 - y12_39 - y2_16 - y31_52 - y39_65 - y31_61 - y4_44 - y23_57 - y32_35 - y13_31 - y24_31 - y32_44 - y43_44 - y13_40 - y1_47 - y13_49 - y5_8 - y5_17 - y17_19 - y9_15 - y57_64 - y17_37 - y6_9 - y27_41 - y58_65 - y50_61 - y19_64 - y11_60 - y12_34 - y23_34 - y31_47 - y39_60 - y23_43 - y12_52 - y1_15 - y13_26 - y24_26 - y53_62 - y1_33 - y13_35 - y24_35 - y16_31 - y13_44 - y24_44 - y16_40 - y5_12 - y49_55 - y15_62 - y49_64 - y5_39 - y19_32 - y19_41 - y42_43 - y27_54 - y11_37 - y50_56 - y8_50 - y0_46 - y11_46 - y8_59 - y20_24 - y12_20 - y0_64 - y12_29 - y12_38 - y31_51 - y12_47 - y23_47 - y23_56 - y1_19 - y4_52 - y24_30 - y22_60 - y1_37 - y5_16 - y9_14 - y5_25 - y46_63 - y26_57 - y7_53 - y18_53 - y27_31 - y8_27 - y42_47 - y0_41 - y11_41 - y30_54 - y0_50 - y19_63 - y20_28 - y30_63 - y39_41 - y12_24 - y12_33 - y23_33 - y33_65 - y1_14 - y34_48 - y53_61 - y22_55 - y34_57 - y3_51 - y26_34 - y5_11 - y15_43 - y38_45 - y46_58 - y18_39 - y15_52 - y38_54 - y49_54 - y8_13 - y7_57 - y8_22 - y18_57 - y27_35 - y30_31 - y63_65 - y30_40 - y20_23 - y0_54 - y52_55 - y4_15 - y33_51 - y41_64 - y12_37 - y4_33 - y1_9 - y25_65 - y22_41 - y34_52 - y37_48 - y34_61 - y45_61 - y3_55 - y15_47 - y8_17 - y11_13 - y8_26 - y19_26 - y48_62 - y0_31 - y11_31 - y8_44 - y19_44 - y11_40 - y11_49 - y41_50 - y44_46 - y4_19 - y10_53 - y10_62 - y33_64 - y1_4 - y22_36 - y34_38 - y14_41 - y37_43 - y14_50 - y56_65 - y14_59 - y15_24 - y37_61 - y18_29 - y7_47 - y7_56 - y18_56 - y29_53 - y40_53 - y19_30 - y6_60 - y11_26 - y41_45 - y4_5 - y41_54 - y4_14 - y44_50 - y25_55 - y22_40 - y3_36 - y14_36 - y14_54 - y37_56 - y15_28 - y18_24 - y59_62 - y15_37 - y28_65 - y0_3 - y40_48 - y19_25 - y40_57 - y41_49 - y4_9 - y44_45 - y25_41 - y2_48 - y3_13 - y44_63 - y3_22 - y22_35 - y14_40 - y37_42 - y55_59 - y47_55 - y15_32 - y7_28 - y18_28 - y28_60 - y9_65 - y40_43 - y48_56 - y40_52 - y10_29 - y25_45 - y3_8 - y2_61 - y14_26 - y7_14 - y17_46 - y28_46 - y18_23 - y5_53 - y9_51 - y17_64 - y6_27 - y9_60 - y48_51 - y6_45 - y6_54 - y2_20 - y54_58 - y2_29 - y25_31 - y33_44 - y3_12 - y22_25 - y2_56 - y35_53 - y1_60 - y13_62 - y16_58 - y17_32 - y36_45 - y17_41 - y9_37 - y5_48 - y17_50 - y36_63 - y5_57 - y21_29 - y2_6 - y10_28 - y39_64 - y25_26 - y32_34 - y3_7 - y24_39 - y35_39 - y14_25 - y32_61 - y1_55 - y13_57 - y16_53 - y1_64 - y16_62 - y17_27 - y36_40 - y5_34 - y47_49 - y28_45 - y17_54 - y6_17 - y28_54 - y6_26 - y6_35 - y21_33 - y6_44 - y10_14 - y20_46 - y10_23 - y39_59 - y20_55 - y31_55 - y54_57 - y31_64 - y13_25 - y4_56 - y13_34 - y51_60 - y1_41 - y13_43 - y32_65 - y16_48 - y43_65 - y5_38 - y28_49 - y6_39 - y19_58 - y42_60 - y11_63 - y39_45 - y10_18 - y20_50 - y39_63 - y12_55 - y13_20 - y1_27 - y24_29 - y16_25 - y13_38 - y43_51 - y13_56 - y5_15 - y1_63 - y9_13 - y5_24 - y17_26 - y36_39 - y49_58 - y5_33 - y6_7 - y9_40 - y6_16 - y27_48 - y21_23 - y19_53 - y30_62 - y20_27 - y31_36 - y12_41 - y20_54 - y12_50 - y23_50 - y31_63 - y12_59 - y13_24 - y1_31 - y13_33 - y45_65 - y13_42 - y24_51 - y35_51 - y1_58 - y5_19 - y9_17 - y27_34 - y7_65 - y6_20 - y8_39 - y27_52 - y50_54 - y8_48 - y27_61 - y11_44 - y61_63 - y42_59 - y12_18 - y20_31 - y11_62 - y12_27 - y23_27 - y2_4 - y4_23 - y39_44 - y12_36 - y20_49 - y4_32 - y23_45 - y12_54 - y4_50 - y23_63 - y24_28 - y53_64 - y16_24 - y34_60 - y24_37 - y56_60 - y16_33 - y15_55 - y38_57 - y49_57 - y18_51 - y26_64 - y27_29 - y8_34 - y19_34 - y19_43 - y11_39 - y30_52 - y42_54 - y0_48 - y11_48 - y8_61 - y12_13 - y31_44 - y4_36 - y1_12 - y4_45 - y16_28 - y56_64 - y5_9 - y38_43 - y46_56 - y26_50 - y49_52 - y26_59 - y18_55 - y19_20 - y27_33 - y18_64 - y19_29 - y19_38 - y30_38 - y11_34 - y8_47 - y42_49 - y8_56 - y19_56 - y20_21 - y12_17 - y52_53 - y4_13 - y23_26 - y52_62 - y31_39 - y23_35 - y10_65 - y1_7 - y13_18 - y53_54 - y15_27 - y26_27 - y15_36 - y26_36 - y5_13 - y26_45 - y38_47 - y7_41 - y0_11 - y0_20 - y0_29 - y11_29 - y19_42 - y0_38 - y19_51 - y30_51 - y0_47 - y41_48 - y52_57 - y44_53 - y10_60 - y33_62 - y25_58 - y2_65 - y22_43 - y14_39 - y45_54 - y14_48 - y37_50 - y22_61 - y56_63 - y7_18 - y26_31 - y59_65 - y15_49 - y26_49 - y8_10 - y18_54 - y27_32 - y0_15 - y11_15 - y19_28 - y21_65 - y33_39 - y12_16 - y33_48 - y41_61 - y25_44 - y52_61 - y4_21 - y1_6 - y22_47 - y45_49 - y37_45 - y56_58 - y37_54 - y7_13 - y55_62 - y18_31 - y17_63 - y8_14 - y48_59 - y11_19 - y29_55 - y21_51 - y11_28 - y40_64 - y41_47 - y33_43 - y52_56 - y33_52 - y44_52 - y52_65 - y25_48 - y33_61 - y2_55 - y14_20 - y22_33 - y14_29 - y22_42 - y34_44 - y3_38
 Subject to
C1: x0+x1 <=1 
C2: x0+x2 <=1 
C3: x0+x3-y0_3 <=1 
C4: x0+x6 <=1 
C5: x0+x9-y0_9 <=1 
C6: x0+x10 <=1 
C7: x0+x11-y0_11 <=1 
C8: x0+x12 <=1 
C9: x0+x15-y0_15 <=1 
C10: x0+x16 <=1 
C11: x0+x18 <=1 
C12: x0+x19 <=1 
C13: x0+x20-y0_20 <=1 
C14: x0+x21 <=1 
C15: x0+x23-y0_23 <=1 
C16: x0+x24 <=1 
C17: x0+x25 <=1 
C18: x0+x27 <=1 
C19: x0+x29-y0_29 <=1 
C20: x0+x31-y0_31 <=1 
C21: x0+x32 <=1 
C22: x0+x36 <=1 
C23: x0+x38-y0_38 <=1 
C24: x0+x39 <=1 
C25: x0+x40 <=1 
C26: x0+x41-y0_41 <=1 
C27: x0+x42 <=1 
C28: x0+x44 <=1 
C29: x0+x45 <=1 
C30: x0+x46-y0_46 <=1 
C31: x0+x47-y0_47 <=1 
C32: x0+x48-y0_48 <=1 
C33: x0+x50-y0_50 <=1 
C34: x0+x51 <=1 
C35: x0+x53 <=1 
C36: x0+x54-y0_54 <=1 
C37: x0+x56 <=1 
C38: x0+x60 <=1 
C39: x0+x61 <=1 
C40: x0+x62 <=1 
C41: x0+x63 <=1 
C42: x0+x64-y0_64 <=1 
C43: x0+x65-y0_65 <=1 
C44: x1+x2 <=1 
C45: x1+x4-y1_4 <=1 
C46: x1+x6-y1_6 <=1 
C47: x1+x7-y1_7 <=1 
C48: x1+x9-y1_9 <=1 
C49: x1+x12-y1_12 <=1 
C50: x1+x13 <=1 
C51: x1+x14-y1_14 <=1 
C52: x1+x15-y1_15 <=1 
C53: x1+x17 <=1 
C54: x1+x18 <=1 
C55: x1+x19-y1_19 <=1 
C56: x1+x20 <=1 
C57: x1+x22 <=1 
C58: x1+x25 <=1 
C59: x1+x27-y1_27 <=1 
C60: x1+x31-y1_31 <=1 
C61: x1+x33-y1_33 <=1 
C62: x1+x34 <=1 
C63: x1+x35 <=1 
C64: x1+x36 <=1 
C65: x1+x37-y1_37 <=1 
C66: x1+x39 <=1 
C67: x1+x41-y1_41 <=1 
C68: x1+x43-y1_43 <=1 
C69: x1+x44 <=1 
C70: x1+x46 <=1 
C71: x1+x47-y1_47 <=1 
C72: x1+x48 <=1 
C73: x1+x52 <=1 
C74: x1+x53 <=1 
C75: x1+x55-y1_55 <=1 
C76: x1+x58-y1_58 <=1 
C77: x1+x59 <=1 
C78: x1+x60-y1_60 <=1 
C79: x1+x61-y1_61 <=1 
C80: x1+x62 <=1 
C81: x1+x63-y1_63 <=1 
C82: x1+x64-y1_64 <=1 
C83: x2+x4-y2_4 <=1 
C84: x2+x6-y2_6 <=1 
C85: x2+x7-y2_7 <=1 
C86: x2+x9 <=1 
C87: x2+x12-y2_12 <=1 
C88: x2+x13 <=1 
C89: x2+x16-y2_16 <=1 
C90: x2+x17 <=1 
C91: x2+x20-y2_20 <=1 
C92: x2+x22 <=1 
C93: x2+x24 <=1 
C94: x2+x28 <=1 
C95: x2+x29-y2_29 <=1 
C96: x2+x31 <=1 
C97: x2+x32 <=1 
C98: x2+x33 <=1 
C99: x2+x37 <=1 
C100: x2+x38 <=1 
C101: x2+x39 <=1 
C102: x2+x41 <=1 
C103: x2+x42 <=1 
C104: x2+x44 <=1 
C105: x2+x45-y2_45 <=1 
C106: x2+x48-y2_48 <=1 
C107: x2+x49 <=1 
C108: x2+x51 <=1 
C109: x2+x55-y2_55 <=1 
C110: x2+x56-y2_56 <=1 
C111: x2+x58 <=1 
C112: x2+x59-y2_59 <=1 
C113: x2+x61-y2_61 <=1 
C114: x2+x65-y2_65 <=1 
C115: x3+x4 <=1 
C116: x3+x5-y3_5 <=1 
C117: x3+x6 <=1 
C118: x3+x7-y3_7 <=1 
C119: x3+x8-y3_8 <=1 
C120: x3+x10 <=1 
C121: x3+x11 <=1 
C122: x3+x12-y3_12 <=1 
C123: x3+x13-y3_13 <=1 
C124: x3+x16 <=1 
C125: x3+x19 <=1 
C126: x3+x22-y3_22 <=1 
C127: x3+x24-y3_24 <=1 
C128: x3+x25 <=1 
C129: x3+x26 <=1 
C130: x3+x28 <=1 
C131: x3+x29 <=1 
C132: x3+x33-y3_33 <=1 
C133: x3+x34 <=1 
C134: x3+x36-y3_36 <=1 
C135: x3+x38-y3_38 <=1 
C136: x3+x40 <=1 
C137: x3+x42-y3_42 <=1 
C138: x3+x44 <=1 
C139: x3+x46 <=1 
C140: x3+x47 <=1 
C141: x3+x48 <=1 
C142: x3+x51-y3_51 <=1 
C143: x3+x52 <=1 
C144: x3+x55-y3_55 <=1 
C145: x3+x61 <=1 
C146: x3+x64 <=1 
C147: x4+x5-y4_5 <=1 
C148: x4+x6 <=1 
C149: x4+x9-y4_9 <=1 
C150: x4+x11 <=1 
C151: x4+x13-y4_13 <=1 
C152: x4+x14-y4_14 <=1 
C153: x4+x15-y4_15 <=1 
C154: x4+x16 <=1 
C155: x4+x18 <=1 
C156: x4+x19-y4_19 <=1 
C157: x4+x21-y4_21 <=1 
C158: x4+x22 <=1 
C159: x4+x23-y4_23 <=1 
C160: x4+x24 <=1 
C161: x4+x31 <=1 
C162: x4+x32-y4_32 <=1 
C163: x4+x33-y4_33 <=1 
C164: x4+x36-y4_36 <=1 
C165: x4+x38 <=1 
C166: x4+x40 <=1 
C167: x4+x41 <=1 
C168: x4+x44-y4_44 <=1 
C169: x4+x45-y4_45 <=1 
C170: x4+x46 <=1 
C171: x4+x47 <=1 
C172: x4+x48 <=1 
C173: x4+x49-y4_49 <=1 
C174: x4+x50-y4_50 <=1 
C175: x4+x51 <=1 
C176: x4+x52-y4_52 <=1 
C177: x4+x54 <=1 
C178: x4+x56-y4_56 <=1 
C179: x4+x59 <=1 
C180: x4+x60 <=1 
C181: x4+x62 <=1 
C182: x4+x65 <=1 
C183: x5+x7 <=1 
C184: x5+x8-y5_8 <=1 
C185: x5+x9-y5_9 <=1 
C186: x5+x10 <=1 
C187: x5+x11-y5_11 <=1 
C188: x5+x12-y5_12 <=1 
C189: x5+x13-y5_13 <=1 
C190: x5+x15-y5_15 <=1 
C191: x5+x16-y5_16 <=1 
C192: x5+x17-y5_17 <=1 
C193: x5+x19-y5_19 <=1 
C194: x5+x23 <=1 
C195: x5+x24-y5_24 <=1 
C196: x5+x25-y5_25 <=1 
C197: x5+x26 <=1 
C198: x5+x27 <=1 
C199: x5+x28 <=1 
C200: x5+x30 <=1 
C201: x5+x31 <=1 
C202: x5+x33-y5_33 <=1 
C203: x5+x34-y5_34 <=1 
C204: x5+x38-y5_38 <=1 
C205: x5+x39-y5_39 <=1 
C206: x5+x40 <=1 
C207: x5+x42 <=1 
C208: x5+x44 <=1 
C209: x5+x45-y5_45 <=1 
C210: x5+x46 <=1 
C211: x5+x47 <=1 
C212: x5+x48-y5_48 <=1 
C213: x5+x50-y5_50 <=1 
C214: x5+x51 <=1 
C215: x5+x53-y5_53 <=1 
C216: x5+x54 <=1 
C217: x5+x55-y5_55 <=1 
C218: x5+x56 <=1 
C219: x5+x57-y5_57 <=1 
C220: x5+x59 <=1 
C221: x5+x60-y5_60 <=1 
C222: x5+x62 <=1 
C223: x6+x7-y6_7 <=1 
C224: x6+x8 <=1 
C225: x6+x9-y6_9 <=1 
C226: x6+x14-y6_14 <=1 
C227: x6+x16-y6_16 <=1 
C228: x6+x17-y6_17 <=1 
C229: x6+x18 <=1 
C230: x6+x19 <=1 
C231: x6+x20-y6_20 <=1 
C232: x6+x21 <=1 
C233: x6+x23 <=1 
C234: x6+x25 <=1 
C235: x6+x26-y6_26 <=1 
C236: x6+x27-y6_27 <=1 
C237: x6+x29-y6_29 <=1 
C238: x6+x30 <=1 
C239: x6+x31 <=1 
C240: x6+x33-y6_33 <=1 
C241: x6+x34 <=1 
C242: x6+x35-y6_35 <=1 
C243: x6+x36 <=1 
C244: x6+x37-y6_37 <=1 
C245: x6+x39-y6_39 <=1 
C246: x6+x40 <=1 
C247: x6+x42 <=1 
C248: x6+x43 <=1 
C249: x6+x44-y6_44 <=1 
C250: x6+x45-y6_45 <=1 
C251: x6+x46-y6_46 <=1 
C252: x6+x48-y6_48 <=1 
C253: x6+x49 <=1 
C254: x6+x51 <=1 
C255: x6+x54-y6_54 <=1 
C256: x6+x57-y6_57 <=1 
C257: x6+x60-y6_60 <=1 
C258: x6+x62 <=1 
C259: x6+x65 <=1 
C260: x7+x10 <=1 
C261: x7+x11 <=1 
C262: x7+x12 <=1 
C263: x7+x13-y7_13 <=1 
C264: x7+x14-y7_14 <=1 
C265: x7+x15 <=1 
C266: x7+x18-y7_18 <=1 
C267: x7+x19 <=1 
C268: x7+x21 <=1 
C269: x7+x24 <=1 
C270: x7+x26 <=1 
C271: x7+x28-y7_28 <=1 
C272: x7+x29 <=1 
C273: x7+x31 <=1 
C274: x7+x32 <=1 
C275: x7+x34 <=1 
C276: x7+x39 <=1 
C277: x7+x41-y7_41 <=1 
C278: x7+x46 <=1 
C279: x7+x47-y7_47 <=1 
C280: x7+x49 <=1 
C281: x7+x52 <=1 
C282: x7+x53-y7_53 <=1 
C283: x7+x55 <=1 
C284: x7+x56-y7_56 <=1 
C285: x7+x57-y7_57 <=1 
C286: x7+x58 <=1 
C287: x7+x59 <=1 
C288: x7+x60 <=1 
C289: x7+x61 <=1 
C290: x7+x62 <=1 
C291: x7+x64 <=1 
C292: x7+x65-y7_65 <=1 
C293: x8+x9 <=1 
C294: x8+x10-y8_10 <=1 
C295: x8+x13-y8_13 <=1 
C296: x8+x14-y8_14 <=1 
C297: x8+x15 <=1 
C298: x8+x17-y8_17 <=1 
C299: x8+x18-y8_18 <=1 
C300: x8+x20 <=1 
C301: x8+x21 <=1 
C302: x8+x22-y8_22 <=1 
C303: x8+x25 <=1 
C304: x8+x26-y8_26 <=1 
C305: x8+x27-y8_27 <=1 
C306: x8+x33 <=1 
C307: x8+x34-y8_34 <=1 
C308: x8+x35 <=1 
C309: x8+x37 <=1 
C310: x8+x38 <=1 
C311: x8+x39-y8_39 <=1 
C312: x8+x40 <=1 
C313: x8+x43 <=1 
C314: x8+x44-y8_44 <=1 
C315: x8+x47-y8_47 <=1 
C316: x8+x48-y8_48 <=1 
C317: x8+x49 <=1 
C318: x8+x50-y8_50 <=1 
C319: x8+x52 <=1 
C320: x8+x53 <=1 
C321: x8+x55 <=1 
C322: x8+x56-y8_56 <=1 
C323: x8+x58 <=1 
C324: x8+x59-y8_59 <=1 
C325: x8+x61-y8_61 <=1 
C326: x8+x62 <=1 
C327: x9+x11-y9_11 <=1 
C328: x9+x12 <=1 
C329: x9+x13-y9_13 <=1 
C330: x9+x14-y9_14 <=1 
C331: x9+x15-y9_15 <=1 
C332: x9+x17-y9_17 <=1 
C333: x9+x19 <=1 
C334: x9+x20-y9_20 <=1 
C335: x9+x24 <=1 
C336: x9+x25 <=1 
C337: x9+x29 <=1 
C338: x9+x30-y9_30 <=1 
C339: x9+x31 <=1 
C340: x9+x32 <=1 
C341: x9+x33 <=1 
C342: x9+x34 <=1 
C343: x9+x35 <=1 
C344: x9+x36 <=1 
C345: x9+x37-y9_37 <=1 
C346: x9+x38 <=1 
C347: x9+x39 <=1 
C348: x9+x40-y9_40 <=1 
C349: x9+x43-y9_43 <=1 
C350: x9+x45 <=1 
C351: x9+x46 <=1 
C352: x9+x48 <=1 
C353: x9+x51-y9_51 <=1 
C354: x9+x53 <=1 
C355: x9+x54 <=1 
C356: x9+x55 <=1 
C357: x9+x58-y9_58 <=1 
C358: x9+x60-y9_60 <=1 
C359: x9+x62-y9_62 <=1 
C360: x9+x63 <=1 
C361: x9+x65-y9_65 <=1 
C362: x10+x11 <=1 
C363: x10+x12 <=1 
C364: x10+x13 <=1 
C365: x10+x14-y10_14 <=1 
C366: x10+x18-y10_18 <=1 
C367: x10+x19 <=1 
C368: x10+x23-y10_23 <=1 
C369: x10+x27-y10_27 <=1 
C370: x10+x28-y10_28 <=1 
C371: x10+x29-y10_29 <=1 
C372: x10+x30 <=1 
C373: x10+x31-y10_31 <=1 
C374: x10+x32 <=1 
C375: x10+x33 <=1 
C376: x10+x35 <=1 
C377: x10+x36 <=1 
C378: x10+x37 <=1 
C379: x10+x40-y10_40 <=1 
C380: x10+x42 <=1 
C381: x10+x43 <=1 
C382: x10+x44 <=1 
C383: x10+x45 <=1 
C384: x10+x47 <=1 
C385: x10+x48 <=1 
C386: x10+x49-y10_49 <=1 
C387: x10+x50 <=1 
C388: x10+x51 <=1 
C389: x10+x52 <=1 
C390: x10+x53-y10_53 <=1 
C391: x10+x54-y10_54 <=1 
C392: x10+x57 <=1 
C393: x10+x59 <=1 
C394: x10+x60-y10_60 <=1 
C395: x10+x61 <=1 
C396: x10+x62-y10_62 <=1 
C397: x10+x63-y10_63 <=1 
C398: x10+x65-y10_65 <=1 
C399: x11+x13-y11_13 <=1 
C400: x11+x14 <=1 
C401: x11+x15-y11_15 <=1 
C402: x11+x16 <=1 
C403: x11+x19-y11_19 <=1 
C404: x11+x20 <=1 
C405: x11+x21 <=1 
C406: x11+x23 <=1 
C407: x11+x24 <=1 
C408: x11+x26-y11_26 <=1 
C409: x11+x28-y11_28 <=1 
C410: x11+x29-y11_29 <=1 
C411: x11+x31-y11_31 <=1 
C412: x11+x34-y11_34 <=1 
C413: x11+x35 <=1 
C414: x11+x37-y11_37 <=1 
C415: x11+x39-y11_39 <=1 
C416: x11+x40-y11_40 <=1 
C417: x11+x41-y11_41 <=1 
C418: x11+x42 <=1 
C419: x11+x43 <=1 
C420: x11+x44-y11_44 <=1 
C421: x11+x46-y11_46 <=1 
C422: x11+x48-y11_48 <=1 
C423: x11+x49-y11_49 <=1 
C424: x11+x52 <=1 
C425: x11+x54 <=1 
C426: x11+x55 <=1 
C427: x11+x59 <=1 
C428: x11+x60-y11_60 <=1 
C429: x11+x61 <=1 
C430: x11+x62-y11_62 <=1 
C431: x11+x63-y11_63 <=1 
C432: x12+x13-y12_13 <=1 
C433: x12+x14 <=1 
C434: x12+x16-y12_16 <=1 
C435: x12+x17-y12_17 <=1 
C436: x12+x18-y12_18 <=1 
C437: x12+x19 <=1 
C438: x12+x20-y12_20 <=1 
C439: x12+x21 <=1 
C440: x12+x23 <=1 
C441: x12+x24-y12_24 <=1 
C442: x12+x27-y12_27 <=1 
C443: x12+x29-y12_29 <=1 
C444: x12+x31 <=1 
C445: x12+x33-y12_33 <=1 
C446: x12+x34-y12_34 <=1 
C447: x12+x36-y12_36 <=1 
C448: x12+x37-y12_37 <=1 
C449: x12+x38-y12_38 <=1 
C450: x12+x39-y12_39 <=1 
C451: x12+x41-y12_41 <=1 
C452: x12+x45 <=1 
C453: x12+x46 <=1 
C454: x12+x47-y12_47 <=1 
C455: x12+x50-y12_50 <=1 
C456: x12+x51 <=1 
C457: x12+x52-y12_52 <=1 
C458: x12+x54-y12_54 <=1 
C459: x12+x55-y12_55 <=1 
C460: x12+x56 <=1 
C461: x12+x59-y12_59 <=1 
C462: x12+x62-y12_62 <=1 
C463: x12+x63 <=1 
C464: x12+x64 <=1 
C465: x12+x65 <=1 
C466: x13+x14 <=1 
C467: x13+x15 <=1 
C468: x13+x17 <=1 
C469: x13+x18-y13_18 <=1 
C470: x13+x19 <=1 
C471: x13+x20-y13_20 <=1 
C472: x13+x22 <=1 
C473: x13+x24-y13_24 <=1 
C474: x13+x25-y13_25 <=1 
C475: x13+x26-y13_26 <=1 
C476: x13+x28 <=1 
C477: x13+x31-y13_31 <=1 
C478: x13+x32-y13_32 <=1 
C479: x13+x33-y13_33 <=1 
C480: x13+x34-y13_34 <=1 
C481: x13+x35-y13_35 <=1 
C482: x13+x38-y13_38 <=1 
C483: x13+x39 <=1 
C484: x13+x40-y13_40 <=1 
C485: x13+x42-y13_42 <=1 
C486: x13+x43-y13_43 <=1 
C487: x13+x44-y13_44 <=1 
C488: x13+x45 <=1 
C489: x13+x46 <=1 
C490: x13+x47 <=1 
C491: x13+x49-y13_49 <=1 
C492: x13+x50 <=1 
C493: x13+x52 <=1 
C494: x13+x53 <=1 
C495: x13+x54 <=1 
C496: x13+x56-y13_56 <=1 
C497: x13+x57-y13_57 <=1 
C498: x13+x62-y13_62 <=1 
C499: x13+x64 <=1 
C500: x14+x16 <=1 
C501: x14+x18-y14_18 <=1 
C502: x14+x19 <=1 
C503: x14+x20-y14_20 <=1 
C504: x14+x23 <=1 
C505: x14+x24 <=1 
C506: x14+x25-y14_25 <=1 
C507: x14+x26-y14_26 <=1 
C508: x14+x27 <=1 
C509: x14+x29-y14_29 <=1 
C510: x14+x32 <=1 
C511: x14+x36-y14_36 <=1 
C512: x14+x37-y14_37 <=1 
C513: x14+x39-y14_39 <=1 
C514: x14+x40-y14_40 <=1 
C515: x14+x41-y14_41 <=1 
C516: x14+x47 <=1 
C517: x14+x48-y14_48 <=1 
C518: x14+x50-y14_50 <=1 
C519: x14+x51 <=1 
C520: x14+x53 <=1 
C521: x14+x54-y14_54 <=1 
C522: x14+x56 <=1 
C523: x14+x57 <=1 
C524: x14+x59-y14_59 <=1 
C525: x14+x60 <=1 
C526: x14+x64 <=1 
C527: x14+x65 <=1 
C528: x15+x17 <=1 
C529: x15+x18 <=1 
C530: x15+x21-y15_21 <=1 
C531: x15+x22 <=1 
C532: x15+x23 <=1 
C533: x15+x24-y15_24 <=1 
C534: x15+x25-y15_25 <=1 
C535: x15+x26 <=1 
C536: x15+x27-y15_27 <=1 
C537: x15+x28-y15_28 <=1 
C538: x15+x30-y15_30 <=1 
C539: x15+x31 <=1 
C540: x15+x32-y15_32 <=1 
C541: x15+x33 <=1 
C542: x15+x34 <=1 
C543: x15+x36-y15_36 <=1 
C544: x15+x37-y15_37 <=1 
C545: x15+x39-y15_39 <=1 
C546: x15+x43-y15_43 <=1 
C547: x15+x45 <=1 
C548: x15+x47-y15_47 <=1 
C549: x15+x48 <=1 
C550: x15+x49-y15_49 <=1 
C551: x15+x52-y15_52 <=1 
C552: x15+x53 <=1 
C553: x15+x55-y15_55 <=1 
C554: x15+x58 <=1 
C555: x15+x60 <=1 
C556: x15+x62-y15_62 <=1 
C557: x15+x64 <=1 
C558: x16+x21 <=1 
C559: x16+x23 <=1 
C560: x16+x24-y16_24 <=1 
C561: x16+x25-y16_25 <=1 
C562: x16+x26 <=1 
C563: x16+x27 <=1 
C564: x16+x28-y16_28 <=1 
C565: x16+x30 <=1 
C566: x16+x31-y16_31 <=1 
C567: x16+x33-y16_33 <=1 
C568: x16+x34 <=1 
C569: x16+x35 <=1 
C570: x16+x37-y16_37 <=1 
C571: x16+x38 <=1 
C572: x16+x40-y16_40 <=1 
C573: x16+x41 <=1 
C574: x16+x45 <=1 
C575: x16+x46 <=1 
C576: x16+x48-y16_48 <=1 
C577: x16+x50-y16_50 <=1 
C578: x16+x51-y16_51 <=1 
C579: x16+x53-y16_53 <=1 
C580: x16+x55 <=1 
C581: x16+x57 <=1 
C582: x16+x58-y16_58 <=1 
C583: x16+x59 <=1 
C584: x16+x60 <=1 
C585: x16+x61 <=1 
C586: x16+x62-y16_62 <=1 
C587: x16+x65 <=1 
C588: x17+x19-y17_19 <=1 
C589: x17+x20 <=1 
C590: x17+x22 <=1 
C591: x17+x23 <=1 
C592: x17+x26-y17_26 <=1 
C593: x17+x27-y17_27 <=1 
C594: x17+x29 <=1 
C595: x17+x32-y17_32 <=1 
C596: x17+x33-y17_33 <=1 
C597: x17+x34-y17_34 <=1 
C598: x17+x35 <=1 
C599: x17+x36 <=1 
C600: x17+x37-y17_37 <=1 
C601: x17+x39 <=1 
C602: x17+x40 <=1 
C603: x17+x41-y17_41 <=1 
C604: x17+x42-y17_42 <=1 
C605: x17+x43 <=1 
C606: x17+x44 <=1 
C607: x17+x46-y17_46 <=1 
C608: x17+x47 <=1 
C609: x17+x49 <=1 
C610: x17+x50-y17_50 <=1 
C611: x17+x51 <=1 
C612: x17+x52 <=1 
C613: x17+x53-y17_53 <=1 
C614: x17+x54-y17_54 <=1 
C615: x17+x56 <=1 
C616: x17+x57-y17_57 <=1 
C617: x17+x58-y17_58 <=1 
C618: x17+x60 <=1 
C619: x17+x62 <=1 
C620: x17+x63-y17_63 <=1 
C621: x17+x64-y17_64 <=1 
C622: x17+x65 <=1 
C623: x18+x21-y18_21 <=1 
C624: x18+x23-y18_23 <=1 
C625: x18+x24-y18_24 <=1 
C626: x18+x25 <=1 
C627: x18+x26-y18_26 <=1 
C628: x18+x27 <=1 
C629: x18+x28-y18_28 <=1 
C630: x18+x29-y18_29 <=1 
C631: x18+x30-y18_30 <=1 
C632: x18+x31-y18_31 <=1 
C633: x18+x32 <=1 
C634: x18+x33 <=1 
C635: x18+x36 <=1 
C636: x18+x39-y18_39 <=1 
C637: x18+x42 <=1 
C638: x18+x46 <=1 
C639: x18+x48 <=1 
C640: x18+x51-y18_51 <=1 
C641: x18+x52 <=1 
C642: x18+x53-y18_53 <=1 
C643: x18+x54-y18_54 <=1 
C644: x18+x55-y18_55 <=1 
C645: x18+x56-y18_56 <=1 
C646: x18+x57-y18_57 <=1 
C647: x18+x58 <=1 
C648: x18+x59 <=1 
C649: x18+x60 <=1 
C650: x18+x64-y18_64 <=1 
C651: x19+x20-y19_20 <=1 
C652: x19+x21 <=1 
C653: x19+x22 <=1 
C654: x19+x23 <=1 
C655: x19+x25-y19_25 <=1 
C656: x19+x26-y19_26 <=1 
C657: x19+x27 <=1 
C658: x19+x28-y19_28 <=1 
C659: x19+x29-y19_29 <=1 
C660: x19+x30-y19_30 <=1 
C661: x19+x31 <=1 
C662: x19+x32-y19_32 <=1 
C663: x19+x33 <=1 
C664: x19+x34-y19_34 <=1 
C665: x19+x35 <=1 
C666: x19+x36 <=1 
C667: x19+x37 <=1 
C668: x19+x38-y19_38 <=1 
C669: x19+x39 <=1 
C670: x19+x41-y19_41 <=1 
C671: x19+x42-y19_42 <=1 
C672: x19+x43-y19_43 <=1 
C673: x19+x44-y19_44 <=1 
C674: x19+x46 <=1 
C675: x19+x47 <=1 
C676: x19+x48 <=1 
C677: x19+x50 <=1 
C678: x19+x51-y19_51 <=1 
C679: x19+x52 <=1 
C680: x19+x53-y19_53 <=1 
C681: x19+x55 <=1 
C682: x19+x56-y19_56 <=1 
C683: x19+x57 <=1 
C684: x19+x58-y19_58 <=1 
C685: x19+x61 <=1 
C686: x19+x62 <=1 
C687: x19+x63-y19_63 <=1 
C688: x19+x64-y19_64 <=1 
C689: x19+x65 <=1 
C690: x20+x21-y20_21 <=1 
C691: x20+x22 <=1 
C692: x20+x23-y20_23 <=1 
C693: x20+x24-y20_24 <=1 
C694: x20+x27-y20_27 <=1 
C695: x20+x28-y20_28 <=1 
C696: x20+x29 <=1 
C697: x20+x30 <=1 
C698: x20+x31-y20_31 <=1 
C699: x20+x32 <=1 
C700: x20+x37 <=1 
C701: x20+x40 <=1 
C702: x20+x42 <=1 
C703: x20+x45 <=1 
C704: x20+x46-y20_46 <=1 
C705: x20+x47 <=1 
C706: x20+x48-y20_48 <=1 
C707: x20+x49-y20_49 <=1 
C708: x20+x50-y20_50 <=1 
C709: x20+x54-y20_54 <=1 
C710: x20+x55-y20_55 <=1 
C711: x20+x57-y20_57 <=1 
C712: x20+x59 <=1 
C713: x20+x60 <=1 
C714: x20+x62 <=1 
C715: x20+x63 <=1 
C716: x20+x64 <=1 
C717: x21+x22-y21_22 <=1 
C718: x21+x23-y21_23 <=1 
C719: x21+x24 <=1 
C720: x21+x25 <=1 
C721: x21+x27-y21_27 <=1 
C722: x21+x29-y21_29 <=1 
C723: x21+x30-y21_30 <=1 
C724: x21+x31 <=1 
C725: x21+x33-y21_33 <=1 
C726: x21+x36 <=1 
C727: x21+x39 <=1 
C728: x21+x41 <=1 
C729: x21+x42 <=1 
C730: x21+x44 <=1 
C731: x21+x46-y21_46 <=1 
C732: x21+x47 <=1 
C733: x21+x48 <=1 
C734: x21+x49 <=1 
C735: x21+x50-y21_50 <=1 
C736: x21+x51-y21_51 <=1 
C737: x21+x55-y21_55 <=1 
C738: x21+x56 <=1 
C739: x21+x60 <=1 
C740: x21+x62 <=1 
C741: x21+x63 <=1 
C742: x21+x65-y21_65 <=1 
C743: x22+x25-y22_25 <=1 
C744: x22+x27 <=1 
C745: x22+x28 <=1 
C746: x22+x29 <=1 
C747: x22+x30 <=1 
C748: x22+x31 <=1 
C749: x22+x32-y22_32 <=1 
C750: x22+x33-y22_33 <=1 
C751: x22+x35-y22_35 <=1 
C752: x22+x36-y22_36 <=1 
C753: x22+x37 <=1 
C754: x22+x38 <=1 
C755: x22+x40-y22_40 <=1 
C756: x22+x41-y22_41 <=1 
C757: x22+x42-y22_42 <=1 
C758: x22+x43-y22_43 <=1 
C759: x22+x45 <=1 
C760: x22+x47-y22_47 <=1 
C761: x22+x49 <=1 
C762: x22+x50 <=1 
C763: x22+x51 <=1 
C764: x22+x53 <=1 
C765: x22+x55-y22_55 <=1 
C766: x22+x56 <=1 
C767: x22+x57 <=1 
C768: x22+x59 <=1 
C769: x22+x60-y22_60 <=1 
C770: x22+x61-y22_61 <=1 
C771: x22+x64 <=1 
C772: x22+x65 <=1 
C773: x23+x26-y23_26 <=1 
C774: x23+x27-y23_27 <=1 
C775: x23+x32 <=1 
C776: x23+x33-y23_33 <=1 
C777: x23+x34-y23_34 <=1 
C778: x23+x35-y23_35 <=1 
C779: x23+x37 <=1 
C780: x23+x39 <=1 
C781: x23+x43-y23_43 <=1 
C782: x23+x45-y23_45 <=1 
C783: x23+x46 <=1 
C784: x23+x47-y23_47 <=1 
C785: x23+x48 <=1 
C786: x23+x50-y23_50 <=1 
C787: x23+x51 <=1 
C788: x23+x53-y23_53 <=1 
C789: x23+x55 <=1 
C790: x23+x56-y23_56 <=1 
C791: x23+x57-y23_57 <=1 
C792: x23+x58 <=1 
C793: x23+x59 <=1 
C794: x23+x62-y23_62 <=1 
C795: x23+x63-y23_63 <=1 
C796: x23+x65 <=1 
C797: x24+x25 <=1 
C798: x24+x26-y24_26 <=1 
C799: x24+x28-y24_28 <=1 
C800: x24+x29-y24_29 <=1 
C801: x24+x30-y24_30 <=1 
C802: x24+x31-y24_31 <=1 
C803: x24+x35-y24_35 <=1 
C804: x24+x37-y24_37 <=1 
C805: x24+x38 <=1 
C806: x24+x39-y24_39 <=1 
C807: x24+x40 <=1 
C808: x24+x41 <=1 
C809: x24+x42 <=1 
C810: x24+x43 <=1 
C811: x24+x44-y24_44 <=1 
C812: x24+x45-y24_45 <=1 
C813: x24+x47 <=1 
C814: x24+x50-y24_50 <=1 
C815: x24+x51-y24_51 <=1 
C816: x24+x52 <=1 
C817: x24+x54 <=1 
C818: x24+x55 <=1 
C819: x24+x57 <=1 
C820: x24+x60 <=1 
C821: x24+x61 <=1 
C822: x24+x63-y24_63 <=1 
C823: x24+x64-y24_64 <=1 
C824: x25+x26-y25_26 <=1 
C825: x25+x28-y25_28 <=1 
C826: x25+x29 <=1 
C827: x25+x30 <=1 
C828: x25+x31-y25_31 <=1 
C829: x25+x34-y25_34 <=1 
C830: x25+x40 <=1 
C831: x25+x41-y25_41 <=1 
C832: x25+x42 <=1 
C833: x25+x43-y25_43 <=1 
C834: x25+x44-y25_44 <=1 
C835: x25+x45-y25_45 <=1 
C836: x25+x48-y25_48 <=1 
C837: x25+x51 <=1 
C838: x25+x52 <=1 
C839: x25+x55-y25_55 <=1 
C840: x25+x57 <=1 
C841: x25+x58-y25_58 <=1 
C842: x25+x59 <=1 
C843: x25+x60 <=1 
C844: x25+x62 <=1 
C845: x25+x63 <=1 
C846: x25+x65-y25_65 <=1 
C847: x26+x27-y26_27 <=1 
C848: x26+x30 <=1 
C849: x26+x31-y26_31 <=1 
C850: x26+x32 <=1 
C851: x26+x34-y26_34 <=1 
C852: x26+x36-y26_36 <=1 
C853: x26+x37 <=1 
C854: x26+x38 <=1 
C855: x26+x39-y26_39 <=1 
C856: x26+x40 <=1 
C857: x26+x41 <=1 
C858: x26+x43 <=1 
C859: x26+x44 <=1 
C860: x26+x45-y26_45 <=1 
C861: x26+x49-y26_49 <=1 
C862: x26+x50-y26_50 <=1 
C863: x26+x51 <=1 
C864: x26+x54 <=1 
C865: x26+x56 <=1 
C866: x26+x57-y26_57 <=1 
C867: x26+x59-y26_59 <=1 
C868: x26+x60 <=1 
C869: x26+x64-y26_64 <=1 
C870: x26+x65 <=1 
C871: x27+x29-y27_29 <=1 
C872: x27+x31-y27_31 <=1 
C873: x27+x32-y27_32 <=1 
C874: x27+x33-y27_33 <=1 
C875: x27+x34-y27_34 <=1 
C876: x27+x35-y27_35 <=1 
C877: x27+x36 <=1 
C878: x27+x37 <=1 
C879: x27+x38 <=1 
C880: x27+x39 <=1 
C881: x27+x40 <=1 
C882: x27+x41-y27_41 <=1 
C883: x27+x44 <=1 
C884: x27+x48-y27_48 <=1 
C885: x27+x49 <=1 
C886: x27+x51 <=1 
C887: x27+x52-y27_52 <=1 
C888: x27+x54-y27_54 <=1 
C889: x27+x55 <=1 
C890: x27+x59 <=1 
C891: x27+x60 <=1 
C892: x27+x61-y27_61 <=1 
C893: x27+x62 <=1 
C894: x28+x29 <=1 
C895: x28+x32 <=1 
C896: x28+x33 <=1 
C897: x28+x34 <=1 
C898: x28+x35 <=1 
C899: x28+x37 <=1 
C900: x28+x38-y28_38 <=1 
C901: x28+x40 <=1 
C902: x28+x42-y28_42 <=1 
C903: x28+x44 <=1 
C904: x28+x45-y28_45 <=1 
C905: x28+x46-y28_46 <=1 
C906: x28+x47 <=1 
C907: x28+x49-y28_49 <=1 
C908: x28+x50 <=1 
C909: x28+x52 <=1 
C910: x28+x54-y28_54 <=1 
C911: x28+x56 <=1 
C912: x28+x59 <=1 
C913: x28+x60-y28_60 <=1 
C914: x28+x61 <=1 
C915: x28+x63 <=1 
C916: x28+x64 <=1 
C917: x28+x65-y28_65 <=1 
C918: x29+x30 <=1 
C919: x29+x31-y29_31 <=1 
C920: x29+x34 <=1 
C921: x29+x36 <=1 
C922: x29+x37 <=1 
C923: x29+x42 <=1 
C924: x29+x43 <=1 
C925: x29+x45-y29_45 <=1 
C926: x29+x46 <=1 
C927: x29+x47 <=1 
C928: x29+x52 <=1 
C929: x29+x53-y29_53 <=1 
C930: x29+x54-y29_54 <=1 
C931: x29+x55-y29_55 <=1 
C932: x29+x59 <=1 
C933: x29+x61 <=1 
C934: x29+x62 <=1 
C935: x29+x63-y29_63 <=1 
C936: x29+x65 <=1 
C937: x30+x31-y30_31 <=1 
C938: x30+x34 <=1 
C939: x30+x36 <=1 
C940: x30+x37 <=1 
C941: x30+x38-y30_38 <=1 
C942: x30+x40-y30_40 <=1 
C943: x30+x44 <=1 
C944: x30+x46 <=1 
C945: x30+x47 <=1 
C946: x30+x51-y30_51 <=1 
C947: x30+x52-y30_52 <=1 
C948: x30+x53 <=1 
C949: x30+x54-y30_54 <=1 
C950: x30+x56 <=1 
C951: x30+x57 <=1 
C952: x30+x58 <=1 
C953: x30+x61 <=1 
C954: x30+x62-y30_62 <=1 
C955: x30+x63-y30_63 <=1 
C956: x30+x65 <=1 
C957: x31+x32 <=1 
C958: x31+x34-y31_34 <=1 
C959: x31+x36-y31_36 <=1 
C960: x31+x37 <=1 
C961: x31+x39-y31_39 <=1 
C962: x31+x40 <=1 
C963: x31+x43 <=1 
C964: x31+x44-y31_44 <=1 
C965: x31+x46 <=1 
C966: x31+x47-y31_47 <=1 
C967: x31+x48-y31_48 <=1 
C968: x31+x50 <=1 
C969: x31+x51-y31_51 <=1 
C970: x31+x52-y31_52 <=1 
C971: x31+x55-y31_55 <=1 
C972: x31+x58 <=1 
C973: x31+x59 <=1 
C974: x31+x61-y31_61 <=1 
C975: x31+x62-y31_62 <=1 
C976: x31+x63-y31_63 <=1 
C977: x31+x64-y31_64 <=1 
C978: x32+x34-y32_34 <=1 
C979: x32+x35-y32_35 <=1 
C980: x32+x40 <=1 
C981: x32+x41 <=1 
C982: x32+x43 <=1 
C983: x32+x44-y32_44 <=1 
C984: x32+x45 <=1 
C985: x32+x46 <=1 
C986: x32+x49-y32_49 <=1 
C987: x32+x54-y32_54 <=1 
C988: x32+x55 <=1 
C989: x32+x57 <=1 
C990: x32+x59-y32_59 <=1 
C991: x32+x60-y32_60 <=1 
C992: x32+x61-y32_61 <=1 
C993: x32+x62 <=1 
C994: x32+x65-y32_65 <=1 
C995: x33+x35 <=1 
C996: x33+x36 <=1 
C997: x33+x38-y33_38 <=1 
C998: x33+x39-y33_39 <=1 
C999: x33+x40 <=1 
C1000: x33+x41 <=1 
C1001: x33+x42 <=1 
C1002: x33+x43-y33_43 <=1 
C1003: x33+x44-y33_44 <=1 
C1004: x33+x45 <=1 
C1005: x33+x48-y33_48 <=1 
C1006: x33+x49 <=1 
C1007: x33+x50 <=1 
C1008: x33+x51-y33_51 <=1 
C1009: x33+x52-y33_52 <=1 
C1010: x33+x53 <=1 
C1011: x33+x54 <=1 
C1012: x33+x56-y33_56 <=1 
C1013: x33+x59 <=1 
C1014: x33+x60 <=1 
C1015: x33+x61-y33_61 <=1 
C1016: x33+x62-y33_62 <=1 
C1017: x33+x64-y33_64 <=1 
C1018: x33+x65-y33_65 <=1 
C1019: x34+x36 <=1 
C1020: x34+x38-y34_38 <=1 
C1021: x34+x40 <=1 
C1022: x34+x41 <=1 
C1023: x34+x44-y34_44 <=1 
C1024: x34+x48-y34_48 <=1 
C1025: x34+x49 <=1 
C1026: x34+x50 <=1 
C1027: x34+x52-y34_52 <=1 
C1028: x34+x55 <=1 
C1029: x34+x57-y34_57 <=1 
C1030: x34+x59 <=1 
C1031: x34+x60-y34_60 <=1 
C1032: x34+x61-y34_61 <=1 
C1033: x34+x62 <=1 
C1034: x34+x65 <=1 
C1035: x35+x36 <=1 
C1036: x35+x39-y35_39 <=1 
C1037: x35+x41 <=1 
C1038: x35+x43 <=1 
C1039: x35+x45-y35_45 <=1 
C1040: x35+x46-y35_46 <=1 
C1041: x35+x47 <=1 
C1042: x35+x50-y35_50 <=1 
C1043: x35+x51-y35_51 <=1 
C1044: x35+x52 <=1 
C1045: x35+x53-y35_53 <=1 
C1046: x35+x55 <=1 
C1047: x35+x57 <=1 
C1048: x35+x61 <=1 
C1049: x35+x62 <=1 
C1050: x35+x65 <=1 
C1051: x36+x38-y36_38 <=1 
C1052: x36+x39-y36_39 <=1 
C1053: x36+x40-y36_40 <=1 
C1054: x36+x42 <=1 
C1055: x36+x43-y36_43 <=1 
C1056: x36+x44 <=1 
C1057: x36+x45-y36_45 <=1 
C1058: x36+x47-y36_47 <=1 
C1059: x36+x48 <=1 
C1060: x36+x50 <=1 
C1061: x36+x52 <=1 
C1062: x36+x53-y36_53 <=1 
C1063: x36+x54 <=1 
C1064: x36+x55 <=1 
C1065: x36+x57-y36_57 <=1 
C1066: x36+x58 <=1 
C1067: x36+x59 <=1 
C1068: x36+x60 <=1 
C1069: x36+x61 <=1 
C1070: x36+x62 <=1 
C1071: x36+x63-y36_63 <=1 
C1072: x36+x65-y36_65 <=1 
C1073: x37+x38 <=1 
C1074: x37+x39 <=1 
C1075: x37+x40 <=1 
C1076: x37+x42-y37_42 <=1 
C1077: x37+x43-y37_43 <=1 
C1078: x37+x44 <=1 
C1079: x37+x45-y37_45 <=1 
C1080: x37+x48-y37_48 <=1 
C1081: x37+x50-y37_50 <=1 
C1082: x37+x51 <=1 
C1083: x37+x53 <=1 
C1084: x37+x54-y37_54 <=1 
C1085: x37+x56-y37_56 <=1 
C1086: x37+x61-y37_61 <=1 
C1087: x37+x64 <=1 
C1088: x38+x40 <=1 
C1089: x38+x42 <=1 
C1090: x38+x43-y38_43 <=1 
C1091: x38+x45-y38_45 <=1 
C1092: x38+x47-y38_47 <=1 
C1093: x38+x48 <=1 
C1094: x38+x54-y38_54 <=1 
C1095: x38+x56 <=1 
C1096: x38+x57-y38_57 <=1 
C1097: x38+x60 <=1 
C1098: x38+x61 <=1 
C1099: x38+x65 <=1 
C1100: x39+x40 <=1 
C1101: x39+x41-y39_41 <=1 
C1102: x39+x43-y39_43 <=1 
C1103: x39+x44-y39_44 <=1 
C1104: x39+x45-y39_45 <=1 
C1105: x39+x48-y39_48 <=1 
C1106: x39+x49 <=1 
C1107: x39+x50 <=1 
C1108: x39+x53 <=1 
C1109: x39+x55 <=1 
C1110: x39+x56 <=1 
C1111: x39+x57-y39_57 <=1 
C1112: x39+x59-y39_59 <=1 
C1113: x39+x60-y39_60 <=1 
C1114: x39+x61-y39_61 <=1 
C1115: x39+x62 <=1 
C1116: x39+x63-y39_63 <=1 
C1117: x39+x64-y39_64 <=1 
C1118: x39+x65-y39_65 <=1 
C1119: x40+x41 <=1 
C1120: x40+x42 <=1 
C1121: x40+x43-y40_43 <=1 
C1122: x40+x44-y40_44 <=1 
C1123: x40+x48-y40_48 <=1 
C1124: x40+x52-y40_52 <=1 
C1125: x40+x53-y40_53 <=1 
C1126: x40+x55 <=1 
C1127: x40+x57-y40_57 <=1 
C1128: x40+x58 <=1 
C1129: x40+x59-y40_59 <=1 
C1130: x40+x61 <=1 
C1131: x40+x62 <=1 
C1132: x40+x64-y40_64 <=1 
C1133: x40+x65 <=1 
C1134: x41+x45-y41_45 <=1 
C1135: x41+x46 <=1 
C1136: x41+x47-y41_47 <=1 
C1137: x41+x48-y41_48 <=1 
C1138: x41+x49-y41_49 <=1 
C1139: x41+x50-y41_50 <=1 
C1140: x41+x51 <=1 
C1141: x41+x52 <=1 
C1142: x41+x53 <=1 
C1143: x41+x54-y41_54 <=1 
C1144: x41+x57 <=1 
C1145: x41+x58 <=1 
C1146: x41+x61-y41_61 <=1 
C1147: x41+x62 <=1 
C1148: x41+x63 <=1 
C1149: x41+x64-y41_64 <=1 
C1150: x41+x65 <=1 
C1151: x42+x43-y42_43 <=1 
C1152: x42+x46 <=1 
C1153: x42+x47-y42_47 <=1 
C1154: x42+x48 <=1 
C1155: x42+x49-y42_49 <=1 
C1156: x42+x51 <=1 
C1157: x42+x53-y42_53 <=1 
C1158: x42+x54-y42_54 <=1 
C1159: x42+x55 <=1 
C1160: x42+x57 <=1 
C1161: x42+x58-y42_58 <=1 
C1162: x42+x59-y42_59 <=1 
C1163: x42+x60-y42_60 <=1 
C1164: x42+x62 <=1 
C1165: x42+x63 <=1 
C1166: x43+x44-y43_44 <=1 
C1167: x43+x46 <=1 
C1168: x43+x50 <=1 
C1169: x43+x51-y43_51 <=1 
C1170: x43+x54-y43_54 <=1 
C1171: x43+x55-y43_55 <=1 
C1172: x43+x56 <=1 
C1173: x43+x58-y43_58 <=1 
C1174: x43+x63-y43_63 <=1 
C1175: x43+x64 <=1 
C1176: x43+x65-y43_65 <=1 
C1177: x44+x45-y44_45 <=1 
C1178: x44+x46-y44_46 <=1 
C1179: x44+x47 <=1 
C1180: x44+x50-y44_50 <=1 
C1181: x44+x52-y44_52 <=1 
C1182: x44+x53-y44_53 <=1 
C1183: x44+x54 <=1 
C1184: x44+x56 <=1 
C1185: x44+x58 <=1 
C1186: x44+x63-y44_63 <=1 
C1187: x44+x64 <=1 
C1188: x44+x65 <=1 
C1189: x45+x46 <=1 
C1190: x45+x49-y45_49 <=1 
C1191: x45+x50 <=1 
C1192: x45+x54-y45_54 <=1 
C1193: x45+x55 <=1 
C1194: x45+x56 <=1 
C1195: x45+x59 <=1 
C1196: x45+x61-y45_61 <=1 
C1197: x45+x62 <=1 
C1198: x45+x65-y45_65 <=1 
C1199: x46+x51 <=1 
C1200: x46+x53 <=1 
C1201: x46+x56-y46_56 <=1 
C1202: x46+x58-y46_58 <=1 
C1203: x46+x59 <=1 
C1204: x46+x63-y46_63 <=1 
C1205: x46+x64 <=1 
C1206: x47+x48 <=1 
C1207: x47+x49-y47_49 <=1 
C1208: x47+x52-y47_52 <=1 
C1209: x47+x53 <=1 
C1210: x47+x54 <=1 
C1211: x47+x55-y47_55 <=1 
C1212: x47+x56 <=1 
C1213: x47+x57 <=1 
C1214: x47+x59 <=1 
C1215: x47+x65 <=1 
C1216: x48+x49 <=1 
C1217: x48+x51-y48_51 <=1 
C1218: x48+x53-y48_53 <=1 
C1219: x48+x56-y48_56 <=1 
C1220: x48+x57 <=1 
C1221: x48+x58 <=1 
C1222: x48+x59-y48_59 <=1 
C1223: x48+x60 <=1 
C1224: x48+x62-y48_62 <=1 
C1225: x48+x63 <=1 
C1226: x49+x50 <=1 
C1227: x49+x52-y49_52 <=1 
C1228: x49+x53 <=1 
C1229: x49+x54-y49_54 <=1 
C1230: x49+x55-y49_55 <=1 
C1231: x49+x56 <=1 
C1232: x49+x57-y49_57 <=1 
C1233: x49+x58-y49_58 <=1 
C1234: x49+x59 <=1 
C1235: x49+x60 <=1 
C1236: x49+x63 <=1 
C1237: x49+x64-y49_64 <=1 
C1238: x50+x53 <=1 
C1239: x50+x54-y50_54 <=1 
C1240: x50+x55 <=1 
C1241: x50+x56-y50_56 <=1 
C1242: x50+x57-y50_57 <=1 
C1243: x50+x59 <=1 
C1244: x50+x61-y50_61 <=1 
C1245: x50+x62 <=1 
C1246: x51+x53-y51_53 <=1 
C1247: x51+x54-y51_54 <=1 
C1248: x51+x55 <=1 
C1249: x51+x56 <=1 
C1250: x51+x58-y51_58 <=1 
C1251: x51+x60-y51_60 <=1 
C1252: x51+x61 <=1 
C1253: x51+x64-y51_64 <=1 
C1254: x52+x53-y52_53 <=1 
C1255: x52+x55-y52_55 <=1 
C1256: x52+x56-y52_56 <=1 
C1257: x52+x57-y52_57 <=1 
C1258: x52+x61-y52_61 <=1 
C1259: x52+x62-y52_62 <=1 
C1260: x52+x65-y52_65 <=1 
C1261: x53+x54-y53_54 <=1 
C1262: x53+x56 <=1 
C1263: x53+x58 <=1 
C1264: x53+x60 <=1 
C1265: x53+x61-y53_61 <=1 
C1266: x53+x62-y53_62 <=1 
C1267: x53+x63 <=1 
C1268: x53+x64-y53_64 <=1 
C1269: x54+x55 <=1 
C1270: x54+x56 <=1 
C1271: x54+x57-y54_57 <=1 
C1272: x54+x58-y54_58 <=1 
C1273: x54+x61 <=1 
C1274: x55+x57-y55_57 <=1 
C1275: x55+x59-y55_59 <=1 
C1276: x55+x61-y55_61 <=1 
C1277: x55+x62-y55_62 <=1 
C1278: x55+x65-y55_65 <=1 
C1279: x56+x57 <=1 
C1280: x56+x58-y56_58 <=1 
C1281: x56+x59 <=1 
C1282: x56+x60-y56_60 <=1 
C1283: x56+x63-y56_63 <=1 
C1284: x56+x64-y56_64 <=1 
C1285: x56+x65-y56_65 <=1 
C1286: x57+x59 <=1 
C1287: x57+x64-y57_64 <=1 
C1288: x57+x65 <=1 
C1289: x58+x61 <=1 
C1290: x58+x65-y58_65 <=1 
C1291: x59+x62-y59_62 <=1 
C1292: x59+x63 <=1 
C1293: x59+x64 <=1 
C1294: x59+x65-y59_65 <=1 
C1295: x60+x61 <=1 
C1296: x60+x64 <=1 
C1297: x60+x65 <=1 
C1298: x61+x63-y61_63 <=1 
C1299: x61+x64 <=1 
C1300: x62+x64 <=1 
C1301: x62+x65 <=1 
C1302: x63+x64 <=1 
C1303: x63+x65-y63_65 <=1 
C1304: x64+x65 <=1 

binary
x0
x1
x2
x3
x4
x5
x6
x7
x8
x9
x10
x11
x12
x13
x14
x15
x16
x17
x18
x19
x20
x21
x22
x23
x24
x25
x26
x27
x28
x29
x30
x31
x32
x33
x34
x35
x36
x37
x38
x39
x40
x41
x42
x43
x44
x45
x46
x47
x48
x49
x50
x51
x52
x53
x54
x55
x56
x57
x58
x59
x60
x61
x62
x63
x64
x65
