problem_generation/data/GISP/train/er_n=66_m=1304_p=0.60_SET2_setparam=100.00_alpha=0.50_641.sol
objective value:                                 1174
x2                                                  1 	(obj:100)
x4                                                  1 	(obj:100)
x21                                                 1 	(obj:100)
x23                                                 1 	(obj:100)
x27                                                 1 	(obj:100)
x34                                                 1 	(obj:100)
x43                                                 1 	(obj:100)
x45                                                 1 	(obj:100)
x52                                                 1 	(obj:100)
x53                                                 1 	(obj:100)
x57                                                 1 	(obj:100)
x61                                                 1 	(obj:100)
y2_45                                               1 	(obj:-1)
y21_27                                              1 	(obj:-1)
y23_53                                              1 	(obj:-1)
y23_57                                              1 	(obj:-1)
y23_34                                              1 	(obj:-1)
y23_43                                              1 	(obj:-1)
y4_52                                               1 	(obj:-1)
y53_61                                              1 	(obj:-1)
y34_57                                              1 	(obj:-1)
y34_52                                              1 	(obj:-1)
y34_61                                              1 	(obj:-1)
y45_61                                              1 	(obj:-1)
y2_61                                               1 	(obj:-1)
y21_23                                              1 	(obj:-1)
y27_34                                              1 	(obj:-1)
y27_52                                              1 	(obj:-1)
y27_61                                              1 	(obj:-1)
y23_27                                              1 	(obj:-1)
y2_4                                                1 	(obj:-1)
y4_23                                               1 	(obj:-1)
y23_45                                              1 	(obj:-1)
y4_45                                               1 	(obj:-1)
y52_53                                              1 	(obj:-1)
y52_57                                              1 	(obj:-1)
y52_61                                              1 	(obj:-1)
y4_21                                               1 	(obj:-1)
